solution status: optimal solution found
objective value:                                   14
x40                                                 1 	(obj:1)
x42                                                 1 	(obj:1)
x44                                                 1 	(obj:1)
x47                                                 1 	(obj:1)
x48                                                 1 	(obj:1)
x49                                                 1 	(obj:1)
x50                                                 1 	(obj:1)
x52                                                 1 	(obj:1)
x57                                                 1 	(obj:1)
x58                                                 1 	(obj:1)
x62                                                 1 	(obj:1)
x68                                                 1 	(obj:1)
x70                                                 1 	(obj:1)
x72                                                 1 	(obj:1)
thingy.flush_sieve_hole_y                          15 	(obj:0)
thingy.flush_sieve_hole_z                          20 	(obj:0)
thingy.thingy.prep.vout3_y                         19 	(obj:0)
thingy.thingy.prep.vout3_z                         24 	(obj:0)
thingy.flush_stage_in_hole_y                       16 	(obj:0)
thingy.flush_stage_in_hole_z                       20 	(obj:0)
thingy.flush_prep_outlet_pinholes[1].hole_y                   20 	(obj:0)
thingy.flush_prep_outlet_pinholes[1].hole_z                   19 	(obj:0)
thingy.ctrl_prep_outlet_pinholes[1].hole_y                   20 	(obj:0)
thingy.ctrl_prep_outlet_pinholes[1].hole_z                   23 	(obj:0)
thingy.ctrl_sv1_hole_y                             18 	(obj:0)
thingy.ctrl_sv1_hole_z                             24 	(obj:0)
thingy.ctrl_sieve_hole_y                           17 	(obj:0)
thingy.ctrl_sieve_hole_z                           20 	(obj:0)
thingy.flush_sv1_hole_y                            18 	(obj:0)
thingy.flush_sv1_hole_z                            20 	(obj:0)
$_15__3_y                                          24 	(obj:0)
$_15__3_z                                          21 	(obj:0)
thingy.prep_outlet_pinholes[1].hole_y                   24 	(obj:0)
thingy.prep_outlet_pinholes[1].hole_z                   23 	(obj:0)
thingy.thingy.chamber[1].first.vcollect_y                   17 	(obj:0)
thingy.thingy.chamber[1].first.vcollect_z                   22 	(obj:0)
$_16__3_y                                          17 	(obj:0)
$_16__3_z                                          24 	(obj:0)
thingy.thingy.chamber[0].first.vcollect_y                   16 	(obj:0)
thingy.thingy.chamber[0].first.vcollect_z                   22 	(obj:0)
$_14__3_y                                          24 	(obj:0)
$_14__3_z                                          24 	(obj:0)
$_13__3_y                                          16 	(obj:0)
$_13__3_z                                          24 	(obj:0)
thingy.thingy.chamber[2].first.vcollect_y                   15 	(obj:0)
thingy.thingy.chamber[2].first.vcollect_z                   22 	(obj:0)
thingy.ctrl_stage_in_hole_y                        15 	(obj:0)
thingy.ctrl_stage_in_hole_z                        24 	(obj:0)
$_11__3_y                                          24 	(obj:0)
$_11__3_z                                          22 	(obj:0)
thingy.thingy.chamber[3].first.vcollect_y                   15 	(obj:0)
thingy.thingy.chamber[3].first.vcollect_z                   21 	(obj:0)
